sat
(:max-memory          18.43
 :memory              17.65
 :num-allocs          422105909
 :rlimit-count        407680
 :sls-constraints     2934
 :sls-ddfw-flips      12178405.00
 :sls-ddfw-reinits    49
 :sls-ddfw-restarts   4819
 :sls-ddfw-shifts     5486214.00
 :sls.euf-conflict    2934
 :solve-eqs-elim-vars 5
 :solve-eqs-steps     12
 :time                12.61
 :total-time          12.59)
